Minimize
  obj: x0 + x1 + x2 + x3 + x4 + x5 + x6 + x7 + x8 + x9 + x10

Subject To
  c0: x2 + x3 + x5 + x9 = 41
  c1: x2 + x3 + x4 + x7 + x8 + x9 = 46
  c2: x0 + x1 + x2 + x3 + x4 + x6 + x7 + x8 + x9 + x10 = 89
  c3: x1 + x2 + x3 + x4 + x8 + x9 + x10 = 59
  c4: x1 + x3 + x4 + x5 + x7 + x8 + x9 = 42
  c5: x0 + x1 + x2 + x4 + x6 + x8 + x9 = 70
  c6: x1 + x2 + x3 + x4 + x7 + x8 + x9 + x10 = 60
  c7: x1 + x3 = 8
  c8: x1 + x2 + x4 + x5 + x6 + x7 + x8 + x9 + x10 = 69
  c9: x1 + x3 + x7 + x8 + x9 = 36

Bounds
  x0 >= 0
  x1 >= 0
  x2 >= 0
  x3 >= 0
  x4 >= 0
  x5 >= 0
  x6 >= 0
  x7 >= 0
  x8 >= 0
  x9 >= 0
  x10 >= 0

Generals
  x0 x1 x2 x3 x4 x5 x6 x7 x8 x9 x10

End
